c This is QMaxSAT 2017 based on 14.07
c This is Glucose 3.0
c This is MiniSat 2.2.0
c WARNING: for repeatability, setting FPU to use double precision
c card = mrwto, comp = 0, pmodel = 0, narr = 9, mct = 52, verb = 0
cr firstCPXsol 0 0 0
c top = 1525567
c |  Number of variables:    7200                                             |
c |  Number of clauses:      380988                                           |
c |  Weight of hard clauses: 1525567                                          |
c |  Number of soft clauses: 31212                                            |
c |  Number of unit soft clauses: 0                                           |
c |  Maximum Cardinality (by unit): 16835166     (0           )               |
c last restart ## conflicts  :  16 1699 
o 9214 | cpuTime 0.089969 s
c Sum of weights = 1870574
c A number of soft clauses remained = 3468
c MRWTO encoding for Pseudo-Boolean Constraints
c sizeMax=9214
c No.0 Divisor=10	generated by pow1
c No.1 Divisor=10	generated by pow1
c No.2 Divisor=10	generated by pow1
c No.3 Divisor=10	generated by pow1
c p0= 10	p1= 10	p2= 10	p3= 10	
c number of digits = 5
c linkingVar[0].size = 10, linkingVar[1].size = 10, linkingVar[2].size = 10, linkingVar[3].size = 10, linkingVar[4].size = 1, 
c Pseudo-Boolean Constraints: 92068 variables and 841229 clauses
c Sum of weights = 1870574
c A number of soft clauses remained = 3468
c MRWTO encoding for Pseudo-Boolean Constraints
c sizeMax=9214
c No.0 Divisor=10	generated by pow1
c No.1 Divisor=10	generated by pow1
c No.2 Divisor=10	generated by pow1
c No.3 Divisor=10	generated by pow1
c p0= 10	p1= 10	p2= 10	p3= 10	
c number of digits = 5
c linkingVar[0].size = 10, linkingVar[1].size = 10, linkingVar[2].size = 10, linkingVar[3].size = 10, linkingVar[4].size = 1, 
c Pseudo-Boolean Constraints: 92068 variables and 841229 clauses
c Sum of weights = 1870574
c A number of soft clauses remained = 3468
c MRWTO encoding for Pseudo-Boolean Constraints
c sizeMax=9214
c No.0 Divisor=10	generated by pow1
c No.1 Divisor=10	generated by pow1
c No.2 Divisor=10	generated by pow1
c No.3 Divisor=10	generated by pow1
c p0= 10	p1= 10	p2= 10	p3= 10	
c number of digits = 5
c linkingVar[0].size = 10, linkingVar[1].size = 10, linkingVar[2].size = 10, linkingVar[3].size = 10, linkingVar[4].size = 1, 
c Pseudo-Boolean Constraints: 92068 variables and 841229 clauses
c Sum of weights = 1870574
c A number of soft clauses remained = 3468
c MRWTO encoding for Pseudo-Boolean Constraints
c sizeMax=9214
c No.0 Divisor=10	generated by pow1
c No.1 Divisor=10	generated by pow1
c No.2 Divisor=10	generated by pow1
c No.3 Divisor=10	generated by pow1
c p0= 10	p1= 10	p2= 10	p3= 10	
c number of digits = 5
c linkingVar[0].size = 10, linkingVar[1].size = 10, linkingVar[2].size = 10, linkingVar[3].size = 10, linkingVar[4].size = 1, 
c Pseudo-Boolean Constraints: 92068 variables and 841229 clauses
c Sum of weights = 1870574
c A number of soft clauses remained = 3468
c MRWTO encoding for Pseudo-Boolean Constraints
c sizeMax=9214
c No.0 Divisor=10	generated by pow1
c No.1 Divisor=10	generated by pow1
c No.2 Divisor=10	generated by pow1
c No.3 Divisor=10	generated by pow1
c p0= 10	p1= 10	p2= 10	p3= 10	
c number of digits = 5
c linkingVar[0].size = 10, linkingVar[1].size = 10, linkingVar[2].size = 10, linkingVar[3].size = 10, linkingVar[4].size = 1, 
c Pseudo-Boolean Constraints: 92068 variables and 841229 clauses
c Sum of weights = 1870574
c A number of soft clauses remained = 3468
c MRWTO encoding for Pseudo-Boolean Constraints
c sizeMax=9214
c No.0 Divisor=10	generated by pow1
c No.1 Divisor=10	generated by pow1
c No.2 Divisor=10	generated by pow1
c No.3 Divisor=10	generated by pow1
c p0= 10	p1= 10	p2= 10	p3= 10	
c number of digits = 5
c linkingVar[0].size = 10, linkingVar[1].size = 10, linkingVar[2].size = 10, linkingVar[3].size = 10, linkingVar[4].size = 1, 
c Pseudo-Boolean Constraints: 92068 variables and 841229 clauses
c Sum of weights = 1870574
c A number of soft clauses remained = 3468
c MRWTO encoding for Pseudo-Boolean Constraints
c sizeMax=9214
c No.0 Divisor=10	generated by pow1
c No.1 Divisor=10	generated by pow1
c No.2 Divisor=10	generated by pow1
c No.3 Divisor=10	generated by pow1
c p0= 10	p1= 10	p2= 10	p3= 10	
c number of digits = 5
c linkingVar[0].size = 10, linkingVar[1].size = 10, linkingVar[2].size = 10, linkingVar[3].size = 10, linkingVar[4].size = 1, 
c Pseudo-Boolean Constraints: 92068 variables and 841229 clauses
c Sum of weights = 1870574
c A number of soft clauses remained = 3468
c MRWTO encoding for Pseudo-Boolean Constraints
c sizeMax=9214
c No.0 Divisor=10	generated by pow1
c No.1 Divisor=10	generated by pow1
c No.2 Divisor=10	generated by pow1
c No.3 Divisor=10	generated by pow1
c p0= 10	p1= 10	p2= 10	p3= 10	
c number of digits = 5
c linkingVar[0].size = 10, linkingVar[1].size = 10, linkingVar[2].size = 10, linkingVar[3].size = 10, linkingVar[4].size = 1, 
c Pseudo-Boolean Constraints: 92068 variables and 841229 clauses
c Sum of weights = 1870574
c A number of soft clauses remained = 3468
c MRWTO encoding for Pseudo-Boolean Constraints
c sizeMax=9214
c No.0 Divisor=10	generated by pow1
c No.1 Divisor=10	generated by pow1
c No.2 Divisor=10	generated by pow1
c No.3 Divisor=10	generated by pow1
c p0= 10	p1= 10	p2= 10	p3= 10	
c number of digits = 5
c linkingVar[0].size = 10, linkingVar[1].size = 10, linkingVar[2].size = 10, linkingVar[3].size = 10, linkingVar[4].size = 1, 
c Pseudo-Boolean Constraints: 92068 variables and 841229 clauses
c last restart ## conflicts  :  611 19502 
o 7530 | cpuTime 4.52506 s
c last restart ## conflicts  :  856 13576 
o 6162 | cpuTime 8.6341 s
c last restart ## conflicts  :  576 7517 
o 5505 | cpuTime 12.4567 s
c last restart ## conflicts  :  543 8182 
o 5381 | cpuTime 15.1007 s
c last restart ## conflicts  :  642 13367 
o 5211 | cpuTime 19.0394 s
c last restart ## conflicts  :  746 11967 
o 5099 | cpuTime 105.4 s
c last restart ## conflicts  :  350 11182 
o 5003 | cpuTime 163.869 s
c last restart ## conflicts  :  674 11212 
o 4935 | cpuTime 206.932 s
c last restart ## conflicts  :  490 9858 
o 4887 | cpuTime 221.281 s
c last restart ## conflicts  :  466 10456 
o 4758 | cpuTime 255.749 s
c last restart ## conflicts  :  244 15951 
o 4569 | cpuTime 357.869 s
c last restart ## conflicts  :  203 7535 
o 4130 | cpuTime 362.244 s
c last restart ## conflicts  :  261 11051 
o 3926 | cpuTime 725.505 s
c last restart ## conflicts  :  372 12255 
o 3915 | cpuTime 2041.17 s
s UNKNOWN
c Search is stopped by a limit (maybe time-limit)
cr positiVarArr: [ | 45(1->37) | 117(1->49) | 169(1->41) | 202(1->14) | 283(1->35) | 314(1->6) | 393(1->25) | 447(1->19) | 531(1->43) | 555(2->7) | 655(3->47) | 673(4->5) | 768(5->40) | 820(6->32) | 878(7->30) | 953(8->45) | 1016(9->48) | 1039(10->11) | 1139(11->51) | 1163(12->15) | 1236(13->28) | 1294(14->26) | 1323(15->1) | 1388(16->1) | 1464(17->16) | 1539(18->31) | 1578(19->10) | 1664(20->36) | 1697(21->9) | 1742(22->1) | 1828(23->20) | 1880(24->12) | 1930(25->2) | 2030(26->42) | 2049(27->1) | 2146(28->38) | 2201(29->33) | 2246(30->18) | 2285(31->1) | 2382(32->34) | 2431(33->23) | 2512(34->44) | 2532(35->4) | 2581(36->1) | 2646(37->1) | 2754(38->46) | 2767(39->1) | 2880(40->52) | 2891(41->3) | 2998(42->50) | 3016(43->8) | 3097(44->29) | 3149(45->21) | 3227(46->39) | 3265(47->17) | 3332(48->24) | 3390(49->22) | 3424(50->1) | 3515(51->27) | 3561(52->13) | ]
cr the 1-th chain: [ 1->37->1 ] (#non-depot=1) {#cumul.=2}
cr the 2-th chain: [ 1->49->22->1 ] (#non-depot=2) {#cumul.=4}
cr the 3-th chain: [ 1->41->3->47->17->16->1 ] (#non-depot=5) {#cumul.=9}
cr the 4-th chain: [ 1->14->26->42->50->1 ] (#non-depot=4) {#cumul.=13}
cr the 5-th chain: [ 1->35->4->5->40->52->13->28->38->46->39->1 ] (#non-depot=10) {#cumul.=23}
cr the 6-th chain: [ 1->6->32->34->44->29->33->23->20->36->1 ] (#non-depot=9) {#cumul.=32}
cr the 7-th chain: [ 1->25->2->7->30->18->31->1 ] (#non-depot=6) {#cumul.=38}
cr the 8-th chain: [ 1->19->10->11->51->27->1 ] (#non-depot=5) {#cumul.=43}
cr the 9-th chain: [ 1->43->8->45->21->9->48->24->12->15->1 ] (#non-depot=9) {#cumul.=52}
c Latest Answer = 0 by 15 loops
c restarts              : 37441
c conflicts             : 7867442        (2188 /sec)
c decisions             : 103000511      (0.00 % random) (28648 /sec)
c propagations          : 34832745646    (9688154 /sec)
c conflict literals     : 849672819      (30.86 % deleted)
c Memory used           : 1111.00 MB
c CPU time              : 3595.4 s
